<number of tasks>
50

<cycle time>
1000

<order strength>
0.6


<task times>
1 642
2 519
3 437
4 450
5 603
6 649
7 577
8 564
9 486
10 475
11 763
12 363
13 411
14 444
15 555
16 432
17 402
18 626
19 606
20 626
21 521
22 644
23 362
24 591
25 468
26 699
27 531
28 663
29 461
30 521
31 424
32 656
33 280
34 535
35 432
36 490
37 481
38 385
39 547
40 573
41 476
42 669
43 475
44 370
45 429
46 448
47 563
48 337
49 360
50 634

<precedence relations>
1,6
2,7
3,9
4,8
4,13
4,14
4,15
4,16
5,10
6,12
7,12
8,11
9,13
10,12
10,13
10,14
10,15
10,16
11,18
12,17
12,19
12,20
13,19
13,20
14,19
14,20
15,19
15,20
16,19
16,20
17,21
18,22
19,23
19,24
20,24
21,25
22,26
23,27
24,28
24,29
25,30
26,31
27,30
28,30
28,31
28,32
28,33
28,34
28,35
29,30
29,31
29,32
29,33
29,34
29,35
30,37
30,38
31,46
32,36
32,49
32,50
33,38
35,38
36,39
37,40
38,41
38,42
39,44
40,45
41,43
41,46
42,46
43,47
44,48
45,48
46,48
46,49
46,50

<end>
